Na1 Nb1 O3
1.0
4.009335 0.000000 0.000000
0.000000 4.009335 0.000000
0.000000 0.000000 4.009335
Na Nb O
1 1 3
direct
0.000000 0.000000 0.000000 #Na
0.500000 0.500000 0.500000 #Nb
0.000000 0.500000 0.500000 #O
0.500000 0.000000 0.500000 #O
0.500000 0.500000 0.000000 #O
